Results/Experiment 1 Results/Existing Benchmark/RES_20/i-20-100-19.txt
solutions: 1 nodes: 2  modelTime: 168  solveTime: 17  totalTime: 189  modelSize: 7358  readTime: 4 matchingSize: 10
