Results/Experiment 2 Results/Existing Benchmark/i-20-100-19.lp
clingo version 5.4.0
Reading from tempSRTISolver.lp ...
Solving...
Answer: 1
matched(12,2) matched(9,3) matched(11,4) matched(20,5) matched(8,6) matched(17,7) matched(6,8) matched(3,9) matched(1,10) matched(4,11) matched(2,12) matched(14,13) matched(13,14) matched(19,15) matched(18,16) matched(7,17) matched(16,18) matched(15,19) matched(5,20) matched(10,1)
Optimization: 72
OPTIMUM FOUND

Models       : 1
  Optimum    : yes
Optimization : 72
Calls        : 1
Time         : 0.072s (Solving: 0.00s 1st Model: 0.00s Unsat: 0.00s)
CPU Time     : 0.071s
